% demand
num_movements = 28;
loading_factor = [1250, 1700, 1400, 1550, 1150, 1200, 1550, 1000, 1500, 1750, 1400, 1450, 850, 1700, 1150, 1100, 1150, 1400, 1250, 850, 1350, 1000, 1100, 950, 1400, 1400, 1400, 1400];
pickup_time = [0, 1, 1, 1, 1, 1, 2, 3, 4, 5, 5, 5, 5, 6, 6, 6, 7, 7, 7, 7, 7, 8, 9, 11, 11, 11, 11, 11];
delivery_time = [1, 3, 5, 2, 3, 3, 6, 5, 5, 7, 6, 6, 6, 7, 7, 7, 9, 10, 9, 10, 10, 10, 10, 12, 12, 12, 12, 13];

% transporter definition
total_capacity = 7000;
num_decks = 3;
capacity = [3000, 1000, 3000];

% ways out of decks
num_ways_out = 1;
paths_out = array3d(decks, ways_out, decks, [
% ways out of deck d1
2, 3, 0, 

% ways out of deck d2
3, 0, 0, 

% ways out of deck d3
0, 0, 0,	

]);

